param A: 1 2 3 4 5 6 7 8 9 10 11 :=
1 1 1 0 1 0 0 0 0 0 0 0
2 0 0 1 1 1 0 0 0 0 0 0
3 0 0 0 0 0 1 1 0 0 0 0
4 0 0 0 0 0 0 0 1 0 0 0
5 0 0 0 0 0 0 0 0 1 0 0
6 0 0 0 0 0 0 0 0 0 1 1
7 0 0 0 0 0 1 0 0 0 0 0
8 0 0 1 0 0 0 0 0 0 0 0
9 1 0 0 0 0 0 0 1 0 0 0
10 0 0 0 1 0 0 0 0 0 0 0
11 0 1 0 0 1 0 0 0 1 1 0
12 0 0 0 0 0 0 0 0 0 0 1
;
param c :=
1 9
2 4
3 7
4 3
5 5
6 6
7 3
8 1
9 2
10 7
11 6
;